(set-logic QF_UF)
(declare-fun A0 () Bool)
(declare-fun A1 () Bool)
(declare-fun A2 () Bool)
(declare-fun A3 () Bool)
(declare-fun A4 () Bool)
(declare-fun A5 () Bool)
(declare-fun A6 () Bool)
(declare-fun A7 () Bool)
(declare-fun A9 () Bool)
(declare-fun A10 () Bool)
(declare-fun A11 () Bool)
(declare-fun A12 () Bool)
(declare-fun A13 () Bool)
(declare-fun A14 () Bool)
(declare-fun A15 () Bool)
(declare-fun A16 () Bool)
(declare-fun A17 () Bool)
(declare-fun A18 () Bool)
(declare-fun A19 () Bool)
(declare-fun A21 () Bool)
(declare-fun A22 () Bool)
(declare-fun A23 () Bool)
(declare-fun A24 () Bool)
(assert (let ((.def_0 (not A18))) (let ((.def_1 (or A7 .def_0))) (let ((.def_2 (not .def_1))) (let ((.def_3 (or A3 A9))) (let ((.def_4 (and .def_3 .def_2))) (let ((.def_5 (not A16))) (let ((.def_6 (= .def_5 A11))) (let ((.def_7 (not .def_6))) (let ((.def_8 (or A0 A24))) (let ((.def_9 (not .def_8))) (let ((.def_10 (or .def_9 .def_7))) (let ((.def_11 (or .def_10 .def_4))) (let ((.def_12 (not .def_11))) (let ((.def_13 (or A11 A3))) (let ((.def_14 (not A4))) (let ((.def_15 (or A1 .def_14))) (let ((.def_16 (not .def_15))) (let ((.def_17 (and .def_16 .def_13))) (let ((.def_18 (not A24))) (let ((.def_19 (and .def_18 A9))) (let ((.def_20 (not .def_19))) (let ((.def_21 (not A10))) (let ((.def_22 (= A3 .def_21))) (let ((.def_23 (or .def_22 .def_20))) (let ((.def_24 (not .def_23))) (let ((.def_25 (or .def_24 .def_17))) (let ((.def_26 (and .def_25 .def_12))) (let ((.def_27 (or A12 A6))) (let ((.def_28 (not .def_27))) (let ((.def_29 (not A23))) (let ((.def_30 (or .def_29 A0))) (let ((.def_31 (not .def_30))) (let ((.def_32 (and .def_31 .def_28))) (let ((.def_33 (not .def_32))) (let ((.def_34 (and A21 A2))) (let ((.def_35 (not A6))) (let ((.def_36 (and .def_35 A2))) (let ((.def_37 (or .def_36 .def_34))) (let ((.def_38 (not .def_37))) (let ((.def_39 (or .def_38 .def_33))) (let ((.def_40 (not A12))) (let ((.def_41 (and .def_18 .def_40))) (let ((.def_42 (not .def_41))) (let ((.def_43 (not A9))) (let ((.def_44 (and A23 .def_43))) (let ((.def_45 (or .def_44 .def_42))) (let ((.def_46 (not A5))) (let ((.def_47 (and .def_46 A19))) (let ((.def_48 (or A12 .def_40))) (let ((.def_49 (not .def_48))) (let ((.def_50 (and .def_49 .def_47))) (let ((.def_51 (not .def_50))) (let ((.def_52 (or .def_51 .def_45))) (let ((.def_53 (or .def_52 .def_39))) (let ((.def_54 (= .def_53 .def_26))) (let ((.def_55 (not .def_54))) (let ((.def_56 (or A6 A12))) (let ((.def_57 (or A14 .def_35))) (let ((.def_58 (or .def_57 .def_56))) (let ((.def_59 (not A13))) (let ((.def_60 (not A14))) (let ((.def_61 (or .def_60 .def_59))) (let ((.def_62 (not .def_61))) (let ((.def_63 (and A16 A15))) (let ((.def_64 (and .def_63 .def_62))) (let ((.def_65 (not .def_64))) (let ((.def_66 (and .def_65 .def_58))) (let ((.def_67 (or .def_35 .def_21))) (let ((.def_68 (not .def_67))) (let ((.def_69 (not A19))) (let ((.def_70 (or .def_69 .def_21))) (let ((.def_71 (not .def_70))) (let ((.def_72 (or .def_71 .def_68))) (let ((.def_73 (and A5 A24))) (let ((.def_74 (not .def_73))) (let ((.def_75 (or .def_40 A5))) (let ((.def_76 (not .def_75))) (let ((.def_77 (or .def_76 .def_74))) (let ((.def_78 (not .def_77))) (let ((.def_79 (or .def_78 .def_72))) (let ((.def_80 (or .def_79 .def_66))) (let ((.def_81 (not .def_80))) (let ((.def_82 (and .def_35 .def_29))) (let ((.def_83 (not A21))) (let ((.def_84 (or .def_40 .def_83))) (let ((.def_85 (not .def_84))) (let ((.def_86 (and .def_85 .def_82))) (let ((.def_87 (and A13 .def_0))) (let ((.def_88 (and .def_14 A12))) (let ((.def_89 (not .def_88))) (let ((.def_90 (and .def_89 .def_87))) (let ((.def_91 (not .def_90))) (let ((.def_92 (or .def_91 .def_86))) (let ((.def_93 (and A3 A1))) (let ((.def_94 (not A22))) (let ((.def_95 (not A15))) (let ((.def_96 (and .def_95 .def_94))) (let ((.def_97 (or .def_96 .def_93))) (let ((.def_98 (not A17))) (let ((.def_99 (or A23 .def_98))) (let ((.def_100 (not .def_99))) (let ((.def_101 (and A7 .def_29))) (let ((.def_102 (and .def_101 .def_100))) (let ((.def_103 (not .def_102))) (let ((.def_104 (and .def_103 .def_97))) (let ((.def_105 (not .def_104))) (let ((.def_106 (and .def_105 .def_92))) (let ((.def_107 (or .def_106 .def_81))) (let ((.def_108 (not .def_107))) (let ((.def_109 (and .def_108 .def_55))) (let ((.def_110 (not .def_109))) .def_110))))))))))))))))))))))))))))))))))))))))))))))))))))))))))))))))))))))))))))))))))))))))))))))))))))))))))))))))
(check-sat)
